% File represents an instance of a Composite Structure problem to be solved by a CP framework
% Created on 2025-03-25 14:06:11.952
T = 58;
n = 16;
m = 24;
edges = [(2, 1),
(6, 5),
(10, 9),
(13, 14),
(2, 3),
(7, 6),
(11, 10),
(15, 14),
(3, 4),
(7, 8),
(12, 11),
(16, 15),
(1, 5),
(5, 9),
(13, 9),
(2, 6),
(6, 10),
(10, 14),
(7, 3),
(7, 11),
(11, 15),
(4, 8),
(12, 8),
(12, 16)];
counts = [|20, 8, 24, 2,
|20, 8, 26, 4,
|18, 8, 26, 4,
|18, 8, 24, 4,
|18, 6, 24, 2,
|18, 8, 26, 4,
|18, 8, 28, 4,
|18, 8, 20, 2,
|14, 4, 20, 2,
|16, 8, 24, 2,
|18, 8, 28, 2,
|20, 8, 28, 2,
|16, 8, 24, 2,
|16, 6, 22, 2,
|18, 6, 24, 2,
|20, 6, 28, 2|];
